# Solution for model micodag
# Objective value = 7.7053871492858708e+00
s_0_1 0
s_1_0 0
s_0_2 0
s_2_0 0
s_1_2 9.4306594726130655e-01
s_2_1 0
s_2_3 0
s_3_2 0
s_2_5 0
s_5_2 8.5842735852630048e-01
s_3_4 0
s_4_3 0
s_3_5 0
s_5_3 8.8082240450272131e-01
s_3_6 0
s_6_3 6.7523799493027292e-01
s_4_5 0
s_5_4 0
s_4_6 0
s_6_4 6.3097380195450459e-01
s_4_7 0
s_7_4 2.9396548519235743e-01
s_5_6 0
s_6_5 0
s_5_7 0
s_7_5 5.4075799838721439e-01
s_5_8 0
s_8_5 3.4742210535704965e-01
s_6_7 0
s_7_6 0
s_6_8 0
s_8_6 3.9523205556802465e+00
s_7_8 0
s_8_7 3.6999448243050859e-01
s_0_0 2.0438985145225508e+00
s_1_1 1.6336600244836914e+00
s_2_2 1.2498966075657409e+00
s_3_3 1.1165401152227745e+00
s_4_4 7.4591794690746172e-01
s_5_5 2.0317808546203731e+00
s_6_6 3.9523205556802465e+00
s_7_7 9.2480073110574024e-01
s_8_8 1.0066372644879662e+00
Gamma_0_0 1.4296497873684137e+00
Gamma_0_1 0
Gamma_0_2 0
Gamma_0_3 0
Gamma_0_4 0
Gamma_0_5 0
Gamma_0_6 0
Gamma_0_7 0
Gamma_0_8 0
Gamma_1_0 0
Gamma_1_1 1.2781471059638212e+00
Gamma_1_2 9.7111582587315892e-01
Gamma_1_3 0
Gamma_1_4 0
Gamma_1_5 0
Gamma_1_6 0
Gamma_1_7 0
Gamma_1_8 0
Gamma_2_0 0
Gamma_2_1 0
Gamma_2_2 1.1179877492914405e+00
Gamma_2_3 0
Gamma_2_4 0
Gamma_2_5 0
Gamma_2_6 0
Gamma_2_7 0
Gamma_2_8 0
Gamma_3_0 0
Gamma_3_1 0
Gamma_3_2 0
Gamma_3_3 1.0566646181370769e+00
Gamma_3_4 0
Gamma_3_5 0
Gamma_3_6 0
Gamma_3_7 0
Gamma_3_8 0
Gamma_4_0 0
Gamma_4_1 0
Gamma_4_2 0
Gamma_4_3 0
Gamma_4_4 8.6366541374971229e-01
Gamma_4_5 0
Gamma_4_6 0
Gamma_4_7 0
Gamma_4_8 0
Gamma_5_0 0
Gamma_5_1 0
Gamma_5_2 -9.2651355010399150e-01
Gamma_5_3 -9.3852139267185664e-01
Gamma_5_4 0
Gamma_5_5 1.4254055053283514e+00
Gamma_5_6 0
Gamma_5_7 0
Gamma_5_8 0
Gamma_6_0 0
Gamma_6_1 0
Gamma_6_2 0
Gamma_6_3 -8.2172866259506483e-01
Gamma_6_4 7.9433859402304341e-01
Gamma_6_5 0
Gamma_6_6 9.6730422710364528e-01
Gamma_6_7 0
Gamma_6_8 0
Gamma_7_0 0
Gamma_7_1 0
Gamma_7_2 0
Gamma_7_3 0
Gamma_7_4 5.4218584008839454e-01
Gamma_7_5 7.3536249454756353e-01
Gamma_7_6 0
Gamma_7_7 9.6166560253850264e-01
Gamma_7_8 0
Gamma_8_0 0
Gamma_8_1 0
Gamma_8_2 0
Gamma_8_3 0
Gamma_8_4 0
Gamma_8_5 -5.8942523305085159e-01
Gamma_8_6 7.9161859408751112e-01
Gamma_8_7 6.0827171759872956e-01
Gamma_8_8 1.0033131437831193e+00
psi_0 0
psi_1 0
psi_2 3
psi_3 3
psi_4 2
psi_5 2
psi_6 1
psi_7 1
psi_8 0
g_0_0 0
g_0_1 0
g_0_2 0
g_0_3 0
g_0_4 0
g_0_5 0
g_0_6 0
g_0_7 0
g_0_8 0
g_1_0 0
g_1_1 0
g_1_2 1
g_1_3 0
g_1_4 0
g_1_5 0
g_1_6 0
g_1_7 0
g_1_8 0
g_2_0 0
g_2_1 0
g_2_2 0
g_2_3 0
g_2_4 0
g_2_5 0
g_2_6 0
g_2_7 0
g_2_8 0
g_3_0 0
g_3_1 0
g_3_2 0
g_3_3 0
g_3_4 0
g_3_5 0
g_3_6 0
g_3_7 0
g_3_8 0
g_4_0 0
g_4_1 0
g_4_2 0
g_4_3 0
g_4_4 0
g_4_5 0
g_4_6 0
g_4_7 0
g_4_8 0
g_5_0 0
g_5_1 0
g_5_2 1
g_5_3 1
g_5_4 0
g_5_5 0
g_5_6 0
g_5_7 0
g_5_8 0
g_6_0 0
g_6_1 0
g_6_2 0
g_6_3 1
g_6_4 1
g_6_5 0
g_6_6 0
g_6_7 0
g_6_8 0
g_7_0 0
g_7_1 0
g_7_2 0
g_7_3 0
g_7_4 1
g_7_5 1
g_7_6 0
g_7_7 0
g_7_8 0
g_8_0 0
g_8_1 0
g_8_2 0
g_8_3 0
g_8_4 0
g_8_5 1
g_8_6 1
g_8_7 1
g_8_8 0
T_0 -7.1485902067955465e-01
T_1 -4.9082291143815837e-01
T_2 -2.2306083394580867e-01
T_3 -1.1023472109532406e-01
T_4 2.9313967556846876e-01
T_5 -0.708912676764669
T_6 6.6484447600899443e-02
T_7 7.8176990508822541e-02
T_8 -6.6153348298314540e-03
